NAME : cgl_50.6610.tour
COMMENT : Length = 6610
COMMENT : Found by LKH-3 [Keld Helsgaun] Fri Nov  8 19:20:30 2024
TYPE : TOUR
DIMENSION : 50
TOUR_SECTION
15
14
10
11
8
9
7
17
18
31
29
30
20
19
21
22
23
24
25
26
27
28
32
35
36
40
38
39
37
45
44
49
48
46
47
41
43
42
34
33
50
1
2
3
4
6
5
12
16
13
-1
EOF
